
Gurobi 11.0.3 (linux64) logging started Sun Nov 24 12:08:13 2024

Set parameter LogFile to value "/home/yihong/Coding/OR_SUC/SUC_results_bigM100000_thread4/case24_ieee_rts_theta0.1_epsilon0.025_gurobi_seed1420000_num_gen100_N_WDR50_load_scaling_factor1_exact_T24quadra_cost.txt"
Set parameter TimeLimit to value 3600
Gurobi Optimizer version 11.0.3 build v11.0.3rc0 (linux64 - "Ubuntu 20.04.6 LTS")

CPU model: AMD EPYC 7532 32-Core Processor, instruction set [SSE2|AVX|AVX2]
Thread count: 64 physical cores, 128 logical processors, using up to 4 threads

Optimize a model with 50071 rows, 29861 columns and 508398 nonzeros
Model fingerprint: 0x6012e4c8
Model has 2400 quadratic constraints
Variable types: 27411 continuous, 2450 integer (2450 binary)
Coefficient statistics:
  Matrix range     [3e-04, 1e+05]
  QMatrix range    [2e-03, 8e-03]
  QLMatrix range   [6e-01, 6e+01]
  Objective range  [1e+00, 1e+00]
  Bounds range     [1e+00, 1e+00]
  RHS range        [1e+00, 1e+05]
Presolve removed 40341 rows and 12940 columns
Presolve time: 0.21s
Presolved: 9730 rows, 16921 columns, 52311 nonzeros
Presolved model has 2400 quadratic constraint(s)
Variable types: 14484 continuous, 2437 integer (2437 binary)

Root relaxation: objective 3.637284e+04, 7349 iterations, 0.16 seconds (0.22 work units)

    Nodes    |    Current Node    |     Objective Bounds      |     Work
 Expl Unexpl |  Obj  Depth IntInf | Incumbent    BestBd   Gap | It/Node Time

     0     0 36372.8446    0    2          - 36372.8446      -     -    0s
     0     0 307930.826    0  816          - 307930.826      -     -    0s
     0     0 326033.673    0  760          - 326033.673      -     -    1s
     0     0 612513.328    0  811          - 612513.328      -     -    1s
     0     0 612760.953    0  603          - 612760.953      -     -    1s
     0     0 613143.542    0  360          - 613143.542      -     -    1s
     0     0 613143.629    0  360          - 613143.629      -     -    1s
     0     0 613243.620    0  360          - 613243.620      -     -    1s
     0     0 613243.896    0  360          - 613243.896      -     -    1s
     0     2 613244.889    0  360          - 613244.889      -     -    2s
H  610   507                    660873.12171 613513.380  7.17%  28.1    4s
*  610   507             191    660873.12171 613513.380  7.17%  28.4    4s
   764   588 613704.506   44  242 660873.122 613513.380  7.17%  28.4    5s
H 1059   581                    618775.73379 613516.981  0.85%  24.6    5s
* 1059   581             261    618775.73379 613516.981  0.85%  24.8    5s
  1588   935 614130.911  108  305 618775.734 613558.180  0.84%  21.6   10s
  1601   944 613862.453   28  305 618775.734 613561.496  0.84%  21.4   16s
  1784  1094 613619.057   36  252 618775.734 613579.339  0.84%  39.4   20s
  2567  1784 615039.151   94  172 618775.734 613579.339  0.84%  46.9   25s
H 2764   944                    613707.63783 613579.339  0.02%  44.9   25s
* 2764   944             205    613707.63783 613579.339  0.02%  44.9   25s

Cutting planes:
  Implied bound: 23
  MIR: 35
  Mixing: 1
  Flow cover: 3

Explored 2772 nodes (146171 simplex iterations) in 26.68 seconds (28.38 work units)
Thread count was 4 (of 128 available processors)

Solution count 4: 613708 613708 618776 660873 

Optimal solution found (tolerance 1.00e-03)
Warning: max constraint violation (3.7486e-09) exceeds tolerance
Best objective 6.137076249635e+05, best bound 6.135793388554e+05, gap 0.0209%
